c created by edge2cnf
p cnf 500 3100
-1 -2 0
-1 -3 0
-1 -4 0
-1 -5 0
-2 -3 0
-2 -4 0
-2 -5 0
-3 -4 0
-3 -5 0
-4 -5 0
1 2 3 4 5 0
-6 -7 0
-6 -8 0
-6 -9 0
-6 -10 0
-7 -8 0
-7 -9 0
-7 -10 0
-8 -9 0
-8 -10 0
-9 -10 0
6 7 8 9 10 0
-11 -12 0
-11 -13 0
-11 -14 0
-11 -15 0
-12 -13 0
-12 -14 0
-12 -15 0
-13 -14 0
-13 -15 0
-14 -15 0
11 12 13 14 15 0
-16 -17 0
-16 -18 0
-16 -19 0
-16 -20 0
-17 -18 0
-17 -19 0
-17 -20 0
-18 -19 0
-18 -20 0
-19 -20 0
16 17 18 19 20 0
-21 -22 0
-21 -23 0
-21 -24 0
-21 -25 0
-22 -23 0
-22 -24 0
-22 -25 0
-23 -24 0
-23 -25 0
-24 -25 0
21 22 23 24 25 0
-26 -27 0
-26 -28 0
-26 -29 0
-26 -30 0
-27 -28 0
-27 -29 0
-27 -30 0
-28 -29 0
-28 -30 0
-29 -30 0
26 27 28 29 30 0
-31 -32 0
-31 -33 0
-31 -34 0
-31 -35 0
-32 -33 0
-32 -34 0
-32 -35 0
-33 -34 0
-33 -35 0
-34 -35 0
31 32 33 34 35 0
-36 -37 0
-36 -38 0
-36 -39 0
-36 -40 0
-37 -38 0
-37 -39 0
-37 -40 0
-38 -39 0
-38 -40 0
-39 -40 0
36 37 38 39 40 0
-41 -42 0
-41 -43 0
-41 -44 0
-41 -45 0
-42 -43 0
-42 -44 0
-42 -45 0
-43 -44 0
-43 -45 0
-44 -45 0
41 42 43 44 45 0
-46 -47 0
-46 -48 0
-46 -49 0
-46 -50 0
-47 -48 0
-47 -49 0
-47 -50 0
-48 -49 0
-48 -50 0
-49 -50 0
46 47 48 49 50 0
-51 -52 0
-51 -53 0
-51 -54 0
-51 -55 0
-52 -53 0
-52 -54 0
-52 -55 0
-53 -54 0
-53 -55 0
-54 -55 0
51 52 53 54 55 0
-56 -57 0
-56 -58 0
-56 -59 0
-56 -60 0
-57 -58 0
-57 -59 0
-57 -60 0
-58 -59 0
-58 -60 0
-59 -60 0
56 57 58 59 60 0
-61 -62 0
-61 -63 0
-61 -64 0
-61 -65 0
-62 -63 0
-62 -64 0
-62 -65 0
-63 -64 0
-63 -65 0
-64 -65 0
61 62 63 64 65 0
-66 -67 0
-66 -68 0
-66 -69 0
-66 -70 0
-67 -68 0
-67 -69 0
-67 -70 0
-68 -69 0
-68 -70 0
-69 -70 0
66 67 68 69 70 0
-71 -72 0
-71 -73 0
-71 -74 0
-71 -75 0
-72 -73 0
-72 -74 0
-72 -75 0
-73 -74 0
-73 -75 0
-74 -75 0
71 72 73 74 75 0
-76 -77 0
-76 -78 0
-76 -79 0
-76 -80 0
-77 -78 0
-77 -79 0
-77 -80 0
-78 -79 0
-78 -80 0
-79 -80 0
76 77 78 79 80 0
-81 -82 0
-81 -83 0
-81 -84 0
-81 -85 0
-82 -83 0
-82 -84 0
-82 -85 0
-83 -84 0
-83 -85 0
-84 -85 0
81 82 83 84 85 0
-86 -87 0
-86 -88 0
-86 -89 0
-86 -90 0
-87 -88 0
-87 -89 0
-87 -90 0
-88 -89 0
-88 -90 0
-89 -90 0
86 87 88 89 90 0
-91 -92 0
-91 -93 0
-91 -94 0
-91 -95 0
-92 -93 0
-92 -94 0
-92 -95 0
-93 -94 0
-93 -95 0
-94 -95 0
91 92 93 94 95 0
-96 -97 0
-96 -98 0
-96 -99 0
-96 -100 0
-97 -98 0
-97 -99 0
-97 -100 0
-98 -99 0
-98 -100 0
-99 -100 0
96 97 98 99 100 0
-101 -102 0
-101 -103 0
-101 -104 0
-101 -105 0
-102 -103 0
-102 -104 0
-102 -105 0
-103 -104 0
-103 -105 0
-104 -105 0
101 102 103 104 105 0
-106 -107 0
-106 -108 0
-106 -109 0
-106 -110 0
-107 -108 0
-107 -109 0
-107 -110 0
-108 -109 0
-108 -110 0
-109 -110 0
106 107 108 109 110 0
-111 -112 0
-111 -113 0
-111 -114 0
-111 -115 0
-112 -113 0
-112 -114 0
-112 -115 0
-113 -114 0
-113 -115 0
-114 -115 0
111 112 113 114 115 0
-116 -117 0
-116 -118 0
-116 -119 0
-116 -120 0
-117 -118 0
-117 -119 0
-117 -120 0
-118 -119 0
-118 -120 0
-119 -120 0
116 117 118 119 120 0
-121 -122 0
-121 -123 0
-121 -124 0
-121 -125 0
-122 -123 0
-122 -124 0
-122 -125 0
-123 -124 0
-123 -125 0
-124 -125 0
121 122 123 124 125 0
-126 -127 0
-126 -128 0
-126 -129 0
-126 -130 0
-127 -128 0
-127 -129 0
-127 -130 0
-128 -129 0
-128 -130 0
-129 -130 0
126 127 128 129 130 0
-131 -132 0
-131 -133 0
-131 -134 0
-131 -135 0
-132 -133 0
-132 -134 0
-132 -135 0
-133 -134 0
-133 -135 0
-134 -135 0
131 132 133 134 135 0
-136 -137 0
-136 -138 0
-136 -139 0
-136 -140 0
-137 -138 0
-137 -139 0
-137 -140 0
-138 -139 0
-138 -140 0
-139 -140 0
136 137 138 139 140 0
-141 -142 0
-141 -143 0
-141 -144 0
-141 -145 0
-142 -143 0
-142 -144 0
-142 -145 0
-143 -144 0
-143 -145 0
-144 -145 0
141 142 143 144 145 0
-146 -147 0
-146 -148 0
-146 -149 0
-146 -150 0
-147 -148 0
-147 -149 0
-147 -150 0
-148 -149 0
-148 -150 0
-149 -150 0
146 147 148 149 150 0
-151 -152 0
-151 -153 0
-151 -154 0
-151 -155 0
-152 -153 0
-152 -154 0
-152 -155 0
-153 -154 0
-153 -155 0
-154 -155 0
151 152 153 154 155 0
-156 -157 0
-156 -158 0
-156 -159 0
-156 -160 0
-157 -158 0
-157 -159 0
-157 -160 0
-158 -159 0
-158 -160 0
-159 -160 0
156 157 158 159 160 0
-161 -162 0
-161 -163 0
-161 -164 0
-161 -165 0
-162 -163 0
-162 -164 0
-162 -165 0
-163 -164 0
-163 -165 0
-164 -165 0
161 162 163 164 165 0
-166 -167 0
-166 -168 0
-166 -169 0
-166 -170 0
-167 -168 0
-167 -169 0
-167 -170 0
-168 -169 0
-168 -170 0
-169 -170 0
166 167 168 169 170 0
-171 -172 0
-171 -173 0
-171 -174 0
-171 -175 0
-172 -173 0
-172 -174 0
-172 -175 0
-173 -174 0
-173 -175 0
-174 -175 0
171 172 173 174 175 0
-176 -177 0
-176 -178 0
-176 -179 0
-176 -180 0
-177 -178 0
-177 -179 0
-177 -180 0
-178 -179 0
-178 -180 0
-179 -180 0
176 177 178 179 180 0
-181 -182 0
-181 -183 0
-181 -184 0
-181 -185 0
-182 -183 0
-182 -184 0
-182 -185 0
-183 -184 0
-183 -185 0
-184 -185 0
181 182 183 184 185 0
-186 -187 0
-186 -188 0
-186 -189 0
-186 -190 0
-187 -188 0
-187 -189 0
-187 -190 0
-188 -189 0
-188 -190 0
-189 -190 0
186 187 188 189 190 0
-191 -192 0
-191 -193 0
-191 -194 0
-191 -195 0
-192 -193 0
-192 -194 0
-192 -195 0
-193 -194 0
-193 -195 0
-194 -195 0
191 192 193 194 195 0
-196 -197 0
-196 -198 0
-196 -199 0
-196 -200 0
-197 -198 0
-197 -199 0
-197 -200 0
-198 -199 0
-198 -200 0
-199 -200 0
196 197 198 199 200 0
-201 -202 0
-201 -203 0
-201 -204 0
-201 -205 0
-202 -203 0
-202 -204 0
-202 -205 0
-203 -204 0
-203 -205 0
-204 -205 0
201 202 203 204 205 0
-206 -207 0
-206 -208 0
-206 -209 0
-206 -210 0
-207 -208 0
-207 -209 0
-207 -210 0
-208 -209 0
-208 -210 0
-209 -210 0
206 207 208 209 210 0
-211 -212 0
-211 -213 0
-211 -214 0
-211 -215 0
-212 -213 0
-212 -214 0
-212 -215 0
-213 -214 0
-213 -215 0
-214 -215 0
211 212 213 214 215 0
-216 -217 0
-216 -218 0
-216 -219 0
-216 -220 0
-217 -218 0
-217 -219 0
-217 -220 0
-218 -219 0
-218 -220 0
-219 -220 0
216 217 218 219 220 0
-221 -222 0
-221 -223 0
-221 -224 0
-221 -225 0
-222 -223 0
-222 -224 0
-222 -225 0
-223 -224 0
-223 -225 0
-224 -225 0
221 222 223 224 225 0
-226 -227 0
-226 -228 0
-226 -229 0
-226 -230 0
-227 -228 0
-227 -229 0
-227 -230 0
-228 -229 0
-228 -230 0
-229 -230 0
226 227 228 229 230 0
-231 -232 0
-231 -233 0
-231 -234 0
-231 -235 0
-232 -233 0
-232 -234 0
-232 -235 0
-233 -234 0
-233 -235 0
-234 -235 0
231 232 233 234 235 0
-236 -237 0
-236 -238 0
-236 -239 0
-236 -240 0
-237 -238 0
-237 -239 0
-237 -240 0
-238 -239 0
-238 -240 0
-239 -240 0
236 237 238 239 240 0
-241 -242 0
-241 -243 0
-241 -244 0
-241 -245 0
-242 -243 0
-242 -244 0
-242 -245 0
-243 -244 0
-243 -245 0
-244 -245 0
241 242 243 244 245 0
-246 -247 0
-246 -248 0
-246 -249 0
-246 -250 0
-247 -248 0
-247 -249 0
-247 -250 0
-248 -249 0
-248 -250 0
-249 -250 0
246 247 248 249 250 0
-251 -252 0
-251 -253 0
-251 -254 0
-251 -255 0
-252 -253 0
-252 -254 0
-252 -255 0
-253 -254 0
-253 -255 0
-254 -255 0
251 252 253 254 255 0
-256 -257 0
-256 -258 0
-256 -259 0
-256 -260 0
-257 -258 0
-257 -259 0
-257 -260 0
-258 -259 0
-258 -260 0
-259 -260 0
256 257 258 259 260 0
-261 -262 0
-261 -263 0
-261 -264 0
-261 -265 0
-262 -263 0
-262 -264 0
-262 -265 0
-263 -264 0
-263 -265 0
-264 -265 0
261 262 263 264 265 0
-266 -267 0
-266 -268 0
-266 -269 0
-266 -270 0
-267 -268 0
-267 -269 0
-267 -270 0
-268 -269 0
-268 -270 0
-269 -270 0
266 267 268 269 270 0
-271 -272 0
-271 -273 0
-271 -274 0
-271 -275 0
-272 -273 0
-272 -274 0
-272 -275 0
-273 -274 0
-273 -275 0
-274 -275 0
271 272 273 274 275 0
-276 -277 0
-276 -278 0
-276 -279 0
-276 -280 0
-277 -278 0
-277 -279 0
-277 -280 0
-278 -279 0
-278 -280 0
-279 -280 0
276 277 278 279 280 0
-281 -282 0
-281 -283 0
-281 -284 0
-281 -285 0
-282 -283 0
-282 -284 0
-282 -285 0
-283 -284 0
-283 -285 0
-284 -285 0
281 282 283 284 285 0
-286 -287 0
-286 -288 0
-286 -289 0
-286 -290 0
-287 -288 0
-287 -289 0
-287 -290 0
-288 -289 0
-288 -290 0
-289 -290 0
286 287 288 289 290 0
-291 -292 0
-291 -293 0
-291 -294 0
-291 -295 0
-292 -293 0
-292 -294 0
-292 -295 0
-293 -294 0
-293 -295 0
-294 -295 0
291 292 293 294 295 0
-296 -297 0
-296 -298 0
-296 -299 0
-296 -300 0
-297 -298 0
-297 -299 0
-297 -300 0
-298 -299 0
-298 -300 0
-299 -300 0
296 297 298 299 300 0
-301 -302 0
-301 -303 0
-301 -304 0
-301 -305 0
-302 -303 0
-302 -304 0
-302 -305 0
-303 -304 0
-303 -305 0
-304 -305 0
301 302 303 304 305 0
-306 -307 0
-306 -308 0
-306 -309 0
-306 -310 0
-307 -308 0
-307 -309 0
-307 -310 0
-308 -309 0
-308 -310 0
-309 -310 0
306 307 308 309 310 0
-311 -312 0
-311 -313 0
-311 -314 0
-311 -315 0
-312 -313 0
-312 -314 0
-312 -315 0
-313 -314 0
-313 -315 0
-314 -315 0
311 312 313 314 315 0
-316 -317 0
-316 -318 0
-316 -319 0
-316 -320 0
-317 -318 0
-317 -319 0
-317 -320 0
-318 -319 0
-318 -320 0
-319 -320 0
316 317 318 319 320 0
-321 -322 0
-321 -323 0
-321 -324 0
-321 -325 0
-322 -323 0
-322 -324 0
-322 -325 0
-323 -324 0
-323 -325 0
-324 -325 0
321 322 323 324 325 0
-326 -327 0
-326 -328 0
-326 -329 0
-326 -330 0
-327 -328 0
-327 -329 0
-327 -330 0
-328 -329 0
-328 -330 0
-329 -330 0
326 327 328 329 330 0
-331 -332 0
-331 -333 0
-331 -334 0
-331 -335 0
-332 -333 0
-332 -334 0
-332 -335 0
-333 -334 0
-333 -335 0
-334 -335 0
331 332 333 334 335 0
-336 -337 0
-336 -338 0
-336 -339 0
-336 -340 0
-337 -338 0
-337 -339 0
-337 -340 0
-338 -339 0
-338 -340 0
-339 -340 0
336 337 338 339 340 0
-341 -342 0
-341 -343 0
-341 -344 0
-341 -345 0
-342 -343 0
-342 -344 0
-342 -345 0
-343 -344 0
-343 -345 0
-344 -345 0
341 342 343 344 345 0
-346 -347 0
-346 -348 0
-346 -349 0
-346 -350 0
-347 -348 0
-347 -349 0
-347 -350 0
-348 -349 0
-348 -350 0
-349 -350 0
346 347 348 349 350 0
-351 -352 0
-351 -353 0
-351 -354 0
-351 -355 0
-352 -353 0
-352 -354 0
-352 -355 0
-353 -354 0
-353 -355 0
-354 -355 0
351 352 353 354 355 0
-356 -357 0
-356 -358 0
-356 -359 0
-356 -360 0
-357 -358 0
-357 -359 0
-357 -360 0
-358 -359 0
-358 -360 0
-359 -360 0
356 357 358 359 360 0
-361 -362 0
-361 -363 0
-361 -364 0
-361 -365 0
-362 -363 0
-362 -364 0
-362 -365 0
-363 -364 0
-363 -365 0
-364 -365 0
361 362 363 364 365 0
-366 -367 0
-366 -368 0
-366 -369 0
-366 -370 0
-367 -368 0
-367 -369 0
-367 -370 0
-368 -369 0
-368 -370 0
-369 -370 0
366 367 368 369 370 0
-371 -372 0
-371 -373 0
-371 -374 0
-371 -375 0
-372 -373 0
-372 -374 0
-372 -375 0
-373 -374 0
-373 -375 0
-374 -375 0
371 372 373 374 375 0
-376 -377 0
-376 -378 0
-376 -379 0
-376 -380 0
-377 -378 0
-377 -379 0
-377 -380 0
-378 -379 0
-378 -380 0
-379 -380 0
376 377 378 379 380 0
-381 -382 0
-381 -383 0
-381 -384 0
-381 -385 0
-382 -383 0
-382 -384 0
-382 -385 0
-383 -384 0
-383 -385 0
-384 -385 0
381 382 383 384 385 0
-386 -387 0
-386 -388 0
-386 -389 0
-386 -390 0
-387 -388 0
-387 -389 0
-387 -390 0
-388 -389 0
-388 -390 0
-389 -390 0
386 387 388 389 390 0
-391 -392 0
-391 -393 0
-391 -394 0
-391 -395 0
-392 -393 0
-392 -394 0
-392 -395 0
-393 -394 0
-393 -395 0
-394 -395 0
391 392 393 394 395 0
-396 -397 0
-396 -398 0
-396 -399 0
-396 -400 0
-397 -398 0
-397 -399 0
-397 -400 0
-398 -399 0
-398 -400 0
-399 -400 0
396 397 398 399 400 0
-401 -402 0
-401 -403 0
-401 -404 0
-401 -405 0
-402 -403 0
-402 -404 0
-402 -405 0
-403 -404 0
-403 -405 0
-404 -405 0
401 402 403 404 405 0
-406 -407 0
-406 -408 0
-406 -409 0
-406 -410 0
-407 -408 0
-407 -409 0
-407 -410 0
-408 -409 0
-408 -410 0
-409 -410 0
406 407 408 409 410 0
-411 -412 0
-411 -413 0
-411 -414 0
-411 -415 0
-412 -413 0
-412 -414 0
-412 -415 0
-413 -414 0
-413 -415 0
-414 -415 0
411 412 413 414 415 0
-416 -417 0
-416 -418 0
-416 -419 0
-416 -420 0
-417 -418 0
-417 -419 0
-417 -420 0
-418 -419 0
-418 -420 0
-419 -420 0
416 417 418 419 420 0
-421 -422 0
-421 -423 0
-421 -424 0
-421 -425 0
-422 -423 0
-422 -424 0
-422 -425 0
-423 -424 0
-423 -425 0
-424 -425 0
421 422 423 424 425 0
-426 -427 0
-426 -428 0
-426 -429 0
-426 -430 0
-427 -428 0
-427 -429 0
-427 -430 0
-428 -429 0
-428 -430 0
-429 -430 0
426 427 428 429 430 0
-431 -432 0
-431 -433 0
-431 -434 0
-431 -435 0
-432 -433 0
-432 -434 0
-432 -435 0
-433 -434 0
-433 -435 0
-434 -435 0
431 432 433 434 435 0
-436 -437 0
-436 -438 0
-436 -439 0
-436 -440 0
-437 -438 0
-437 -439 0
-437 -440 0
-438 -439 0
-438 -440 0
-439 -440 0
436 437 438 439 440 0
-441 -442 0
-441 -443 0
-441 -444 0
-441 -445 0
-442 -443 0
-442 -444 0
-442 -445 0
-443 -444 0
-443 -445 0
-444 -445 0
441 442 443 444 445 0
-446 -447 0
-446 -448 0
-446 -449 0
-446 -450 0
-447 -448 0
-447 -449 0
-447 -450 0
-448 -449 0
-448 -450 0
-449 -450 0
446 447 448 449 450 0
-451 -452 0
-451 -453 0
-451 -454 0
-451 -455 0
-452 -453 0
-452 -454 0
-452 -455 0
-453 -454 0
-453 -455 0
-454 -455 0
451 452 453 454 455 0
-456 -457 0
-456 -458 0
-456 -459 0
-456 -460 0
-457 -458 0
-457 -459 0
-457 -460 0
-458 -459 0
-458 -460 0
-459 -460 0
456 457 458 459 460 0
-461 -462 0
-461 -463 0
-461 -464 0
-461 -465 0
-462 -463 0
-462 -464 0
-462 -465 0
-463 -464 0
-463 -465 0
-464 -465 0
461 462 463 464 465 0
-466 -467 0
-466 -468 0
-466 -469 0
-466 -470 0
-467 -468 0
-467 -469 0
-467 -470 0
-468 -469 0
-468 -470 0
-469 -470 0
466 467 468 469 470 0
-471 -472 0
-471 -473 0
-471 -474 0
-471 -475 0
-472 -473 0
-472 -474 0
-472 -475 0
-473 -474 0
-473 -475 0
-474 -475 0
471 472 473 474 475 0
-476 -477 0
-476 -478 0
-476 -479 0
-476 -480 0
-477 -478 0
-477 -479 0
-477 -480 0
-478 -479 0
-478 -480 0
-479 -480 0
476 477 478 479 480 0
-481 -482 0
-481 -483 0
-481 -484 0
-481 -485 0
-482 -483 0
-482 -484 0
-482 -485 0
-483 -484 0
-483 -485 0
-484 -485 0
481 482 483 484 485 0
-486 -487 0
-486 -488 0
-486 -489 0
-486 -490 0
-487 -488 0
-487 -489 0
-487 -490 0
-488 -489 0
-488 -490 0
-489 -490 0
486 487 488 489 490 0
-491 -492 0
-491 -493 0
-491 -494 0
-491 -495 0
-492 -493 0
-492 -494 0
-492 -495 0
-493 -494 0
-493 -495 0
-494 -495 0
491 492 493 494 495 0
-496 -497 0
-496 -498 0
-496 -499 0
-496 -500 0
-497 -498 0
-497 -499 0
-497 -500 0
-498 -499 0
-498 -500 0
-499 -500 0
496 497 498 499 500 0
-56 -66 0
-57 -67 0
-58 -68 0
-59 -69 0
-60 -70 0
-76 -81 0
-77 -82 0
-78 -83 0
-79 -84 0
-80 -85 0
-106 -116 0
-107 -117 0
-108 -118 0
-109 -119 0
-110 -120 0
-116 -126 0
-117 -127 0
-118 -128 0
-119 -129 0
-120 -130 0
-151 -166 0
-152 -167 0
-153 -168 0
-154 -169 0
-155 -170 0
-171 -186 0
-172 -187 0
-173 -188 0
-174 -189 0
-175 -190 0
-181 -186 0
-182 -187 0
-183 -188 0
-184 -189 0
-185 -190 0
-191 -196 0
-192 -197 0
-193 -198 0
-194 -199 0
-195 -200 0
-191 -201 0
-192 -202 0
-193 -203 0
-194 -204 0
-195 -205 0
-226 -236 0
-227 -237 0
-228 -238 0
-229 -239 0
-230 -240 0
-231 -251 0
-232 -252 0
-233 -253 0
-234 -254 0
-235 -255 0
-291 -301 0
-292 -302 0
-293 -303 0
-294 -304 0
-295 -305 0
-296 -316 0
-297 -317 0
-298 -318 0
-299 -319 0
-300 -320 0
-306 -321 0
-307 -322 0
-308 -323 0
-309 -324 0
-310 -325 0
-311 -326 0
-312 -327 0
-313 -328 0
-314 -329 0
-315 -330 0
-331 -336 0
-332 -337 0
-333 -338 0
-334 -339 0
-335 -340 0
-351 -371 0
-352 -372 0
-353 -373 0
-354 -374 0
-355 -375 0
-371 -381 0
-372 -382 0
-373 -383 0
-374 -384 0
-375 -385 0
-376 -381 0
-377 -382 0
-378 -383 0
-379 -384 0
-380 -385 0
-441 -456 0
-442 -457 0
-443 -458 0
-444 -459 0
-445 -460 0
-471 -491 0
-472 -492 0
-473 -493 0
-474 -494 0
-475 -495 0
-1 -496 0
-2 -497 0
-3 -498 0
-4 -499 0
-5 -500 0
-1 -26 0
-2 -27 0
-3 -28 0
-4 -29 0
-5 -30 0
-1 -31 0
-2 -32 0
-3 -33 0
-4 -34 0
-5 -35 0
-1 -51 0
-2 -52 0
-3 -53 0
-4 -54 0
-5 -55 0
-1 -181 0
-2 -182 0
-3 -183 0
-4 -184 0
-5 -185 0
-1 -191 0
-2 -192 0
-3 -193 0
-4 -194 0
-5 -195 0
-1 -271 0
-2 -272 0
-3 -273 0
-4 -274 0
-5 -275 0
-1 -311 0
-2 -312 0
-3 -313 0
-4 -314 0
-5 -315 0
-6 -91 0
-7 -92 0
-8 -93 0
-9 -94 0
-10 -95 0
-6 -106 0
-7 -107 0
-8 -108 0
-9 -109 0
-10 -110 0
-6 -111 0
-7 -112 0
-8 -113 0
-9 -114 0
-10 -115 0
-6 -126 0
-7 -127 0
-8 -128 0
-9 -129 0
-10 -130 0
-6 -136 0
-7 -137 0
-8 -138 0
-9 -139 0
-10 -140 0
-6 -311 0
-7 -312 0
-8 -313 0
-9 -314 0
-10 -315 0
-6 -401 0
-7 -402 0
-8 -403 0
-9 -404 0
-10 -405 0
-6 -456 0
-7 -457 0
-8 -458 0
-9 -459 0
-10 -460 0
-11 -361 0
-12 -362 0
-13 -363 0
-14 -364 0
-15 -365 0
-11 -371 0
-12 -372 0
-13 -373 0
-14 -374 0
-15 -375 0
-16 -41 0
-17 -42 0
-18 -43 0
-19 -44 0
-20 -45 0
-16 -46 0
-17 -47 0
-18 -48 0
-19 -49 0
-20 -50 0
-16 -116 0
-17 -117 0
-18 -118 0
-19 -119 0
-20 -120 0
-16 -131 0
-17 -132 0
-18 -133 0
-19 -134 0
-20 -135 0
-16 -136 0
-17 -137 0
-18 -138 0
-19 -139 0
-20 -140 0
-16 -246 0
-17 -247 0
-18 -248 0
-19 -249 0
-20 -250 0
-16 -261 0
-17 -262 0
-18 -263 0
-19 -264 0
-20 -265 0
-16 -281 0
-17 -282 0
-18 -283 0
-19 -284 0
-20 -285 0
-16 -336 0
-17 -337 0
-18 -338 0
-19 -339 0
-20 -340 0
-16 -386 0
-17 -387 0
-18 -388 0
-19 -389 0
-20 -390 0
-21 -96 0
-22 -97 0
-23 -98 0
-24 -99 0
-25 -100 0
-21 -101 0
-22 -102 0
-23 -103 0
-24 -104 0
-25 -105 0
-21 -136 0
-22 -137 0
-23 -138 0
-24 -139 0
-25 -140 0
-21 -256 0
-22 -257 0
-23 -258 0
-24 -259 0
-25 -260 0
-21 -316 0
-22 -317 0
-23 -318 0
-24 -319 0
-25 -320 0
-21 -361 0
-22 -362 0
-23 -363 0
-24 -364 0
-25 -365 0
-21 -391 0
-22 -392 0
-23 -393 0
-24 -394 0
-25 -395 0
-26 -51 0
-27 -52 0
-28 -53 0
-29 -54 0
-30 -55 0
-26 -221 0
-27 -222 0
-28 -223 0
-29 -224 0
-30 -225 0
-26 -271 0
-27 -272 0
-28 -273 0
-29 -274 0
-30 -275 0
-26 -296 0
-27 -297 0
-28 -298 0
-29 -299 0
-30 -300 0
-26 -336 0
-27 -337 0
-28 -338 0
-29 -339 0
-30 -340 0
-26 -361 0
-27 -362 0
-28 -363 0
-29 -364 0
-30 -365 0
-26 -371 0
-27 -372 0
-28 -373 0
-29 -374 0
-30 -375 0
-26 -381 0
-27 -382 0
-28 -383 0
-29 -384 0
-30 -385 0
-26 -421 0
-27 -422 0
-28 -423 0
-29 -424 0
-30 -425 0
-26 -431 0
-27 -432 0
-28 -433 0
-29 -434 0
-30 -435 0
-26 -466 0
-27 -467 0
-28 -468 0
-29 -469 0
-30 -470 0
-26 -491 0
-27 -492 0
-28 -493 0
-29 -494 0
-30 -495 0
-31 -101 0
-32 -102 0
-33 -103 0
-34 -104 0
-35 -105 0
-31 -116 0
-32 -117 0
-33 -118 0
-34 -119 0
-35 -120 0
-31 -166 0
-32 -167 0
-33 -168 0
-34 -169 0
-35 -170 0
-31 -186 0
-32 -187 0
-33 -188 0
-34 -189 0
-35 -190 0
-31 -316 0
-32 -317 0
-33 -318 0
-34 -319 0
-35 -320 0
-31 -431 0
-32 -432 0
-33 -433 0
-34 -434 0
-35 -435 0
-31 -476 0
-32 -477 0
-33 -478 0
-34 -479 0
-35 -480 0
-31 -481 0
-32 -482 0
-33 -483 0
-34 -484 0
-35 -485 0
-36 -71 0
-37 -72 0
-38 -73 0
-39 -74 0
-40 -75 0
-36 -91 0
-37 -92 0
-38 -93 0
-39 -94 0
-40 -95 0
-36 -191 0
-37 -192 0
-38 -193 0
-39 -194 0
-40 -195 0
-36 -271 0
-37 -272 0
-38 -273 0
-39 -274 0
-40 -275 0
-36 -276 0
-37 -277 0
-38 -278 0
-39 -279 0
-40 -280 0
-36 -416 0
-37 -417 0
-38 -418 0
-39 -419 0
-40 -420 0
-36 -456 0
-37 -457 0
-38 -458 0
-39 -459 0
-40 -460 0
-41 -146 0
-42 -147 0
-43 -148 0
-44 -149 0
-45 -150 0
-41 -236 0
-42 -237 0
-43 -238 0
-44 -239 0
-45 -240 0
-41 -241 0
-42 -242 0
-43 -243 0
-44 -244 0
-45 -245 0
-41 -281 0
-42 -282 0
-43 -283 0
-44 -284 0
-45 -285 0
-41 -351 0
-42 -352 0
-43 -353 0
-44 -354 0
-45 -355 0
-41 -386 0
-42 -387 0
-43 -388 0
-44 -389 0
-45 -390 0
-46 -71 0
-47 -72 0
-48 -73 0
-49 -74 0
-50 -75 0
-46 -241 0
-47 -242 0
-48 -243 0
-49 -244 0
-50 -245 0
-46 -246 0
-47 -247 0
-48 -248 0
-49 -249 0
-50 -250 0
-46 -291 0
-47 -292 0
-48 -293 0
-49 -294 0
-50 -295 0
-46 -296 0
-47 -297 0
-48 -298 0
-49 -299 0
-50 -300 0
-46 -306 0
-47 -307 0
-48 -308 0
-49 -309 0
-50 -310 0
-46 -316 0
-47 -317 0
-48 -318 0
-49 -319 0
-50 -320 0
-46 -321 0
-47 -322 0
-48 -323 0
-49 -324 0
-50 -325 0
-46 -371 0
-47 -372 0
-48 -373 0
-49 -374 0
-50 -375 0
-46 -376 0
-47 -377 0
-48 -378 0
-49 -379 0
-50 -380 0
-46 -446 0
-47 -447 0
-48 -448 0
-49 -449 0
-50 -450 0
-46 -471 0
-47 -472 0
-48 -473 0
-49 -474 0
-50 -475 0
-46 -486 0
-47 -487 0
-48 -488 0
-49 -489 0
-50 -490 0
-51 -131 0
-52 -132 0
-53 -133 0
-54 -134 0
-55 -135 0
-51 -156 0
-52 -157 0
-53 -158 0
-54 -159 0
-55 -160 0
-51 -261 0
-52 -262 0
-53 -263 0
-54 -264 0
-55 -265 0
-51 -306 0
-52 -307 0
-53 -308 0
-54 -309 0
-55 -310 0
-51 -411 0
-52 -412 0
-53 -413 0
-54 -414 0
-55 -415 0
-51 -496 0
-52 -497 0
-53 -498 0
-54 -499 0
-55 -500 0
-56 -311 0
-57 -312 0
-58 -313 0
-59 -314 0
-60 -315 0
-56 -386 0
-57 -387 0
-58 -388 0
-59 -389 0
-60 -390 0
-56 -421 0
-57 -422 0
-58 -423 0
-59 -424 0
-60 -425 0
-61 -181 0
-62 -182 0
-63 -183 0
-64 -184 0
-65 -185 0
-61 -266 0
-62 -267 0
-63 -268 0
-64 -269 0
-65 -270 0
-61 -341 0
-62 -342 0
-63 -343 0
-64 -344 0
-65 -345 0
-61 -346 0
-62 -347 0
-63 -348 0
-64 -349 0
-65 -350 0
-61 -406 0
-62 -407 0
-63 -408 0
-64 -409 0
-65 -410 0
-61 -461 0
-62 -462 0
-63 -463 0
-64 -464 0
-65 -465 0
-66 -106 0
-67 -107 0
-68 -108 0
-69 -109 0
-70 -110 0
-66 -161 0
-67 -162 0
-68 -163 0
-69 -164 0
-70 -165 0
-66 -286 0
-67 -287 0
-68 -288 0
-69 -289 0
-70 -290 0
-66 -291 0
-67 -292 0
-68 -293 0
-69 -294 0
-70 -295 0
-66 -321 0
-67 -322 0
-68 -323 0
-69 -324 0
-70 -325 0
-66 -371 0
-67 -372 0
-68 -373 0
-69 -374 0
-70 -375 0
-66 -436 0
-67 -437 0
-68 -438 0
-69 -439 0
-70 -440 0
-66 -461 0
-67 -462 0
-68 -463 0
-69 -464 0
-70 -465 0
-66 -491 0
-67 -492 0
-68 -493 0
-69 -494 0
-70 -495 0
-71 -201 0
-72 -202 0
-73 -203 0
-74 -204 0
-75 -205 0
-71 -216 0
-72 -217 0
-73 -218 0
-74 -219 0
-75 -220 0
-71 -251 0
-72 -252 0
-73 -253 0
-74 -254 0
-75 -255 0
-71 -351 0
-72 -352 0
-73 -353 0
-74 -354 0
-75 -355 0
-71 -396 0
-72 -397 0
-73 -398 0
-74 -399 0
-75 -400 0
-71 -416 0
-72 -417 0
-73 -418 0
-74 -419 0
-75 -420 0
-71 -461 0
-72 -462 0
-73 -463 0
-74 -464 0
-75 -465 0
-76 -221 0
-77 -222 0
-78 -223 0
-79 -224 0
-80 -225 0
-76 -281 0
-77 -282 0
-78 -283 0
-79 -284 0
-80 -285 0
-76 -326 0
-77 -327 0
-78 -328 0
-79 -329 0
-80 -330 0
-76 -386 0
-77 -387 0
-78 -388 0
-79 -389 0
-80 -390 0
-76 -411 0
-77 -412 0
-78 -413 0
-79 -414 0
-80 -415 0
-76 -436 0
-77 -437 0
-78 -438 0
-79 -439 0
-80 -440 0
-76 -456 0
-77 -457 0
-78 -458 0
-79 -459 0
-80 -460 0
-81 -121 0
-82 -122 0
-83 -123 0
-84 -124 0
-85 -125 0
-81 -181 0
-82 -182 0
-83 -183 0
-84 -184 0
-85 -185 0
-81 -266 0
-82 -267 0
-83 -268 0
-84 -269 0
-85 -270 0
-81 -276 0
-82 -277 0
-83 -278 0
-84 -279 0
-85 -280 0
-81 -301 0
-82 -302 0
-83 -303 0
-84 -304 0
-85 -305 0
-81 -371 0
-82 -372 0
-83 -373 0
-84 -374 0
-85 -375 0
-81 -401 0
-82 -402 0
-83 -403 0
-84 -404 0
-85 -405 0
-81 -471 0
-82 -472 0
-83 -473 0
-84 -474 0
-85 -475 0
-86 -186 0
-87 -187 0
-88 -188 0
-89 -189 0
-90 -190 0
-86 -191 0
-87 -192 0
-88 -193 0
-89 -194 0
-90 -195 0
-86 -281 0
-87 -282 0
-88 -283 0
-89 -284 0
-90 -285 0
-86 -291 0
-87 -292 0
-88 -293 0
-89 -294 0
-90 -295 0
-86 -436 0
-87 -437 0
-88 -438 0
-89 -439 0
-90 -440 0
-86 -456 0
-87 -457 0
-88 -458 0
-89 -459 0
-90 -460 0
-91 -121 0
-92 -122 0
-93 -123 0
-94 -124 0
-95 -125 0
-91 -306 0
-92 -307 0
-93 -308 0
-94 -309 0
-95 -310 0
-91 -321 0
-92 -322 0
-93 -323 0
-94 -324 0
-95 -325 0
-91 -331 0
-92 -332 0
-93 -333 0
-94 -334 0
-95 -335 0
-91 -366 0
-92 -367 0
-93 -368 0
-94 -369 0
-95 -370 0
-91 -371 0
-92 -372 0
-93 -373 0
-94 -374 0
-95 -375 0
-91 -401 0
-92 -402 0
-93 -403 0
-94 -404 0
-95 -405 0
-91 -491 0
-92 -492 0
-93 -493 0
-94 -494 0
-95 -495 0
-96 -126 0
-97 -127 0
-98 -128 0
-99 -129 0
-100 -130 0
-96 -171 0
-97 -172 0
-98 -173 0
-99 -174 0
-100 -175 0
-96 -356 0
-97 -357 0
-98 -358 0
-99 -359 0
-100 -360 0
-96 -401 0
-97 -402 0
-98 -403 0
-99 -404 0
-100 -405 0
-96 -441 0
-97 -442 0
-98 -443 0
-99 -444 0
-100 -445 0
-96 -446 0
-97 -447 0
-98 -448 0
-99 -449 0
-100 -450 0
-96 -461 0
-97 -462 0
-98 -463 0
-99 -464 0
-100 -465 0
-96 -471 0
-97 -472 0
-98 -473 0
-99 -474 0
-100 -475 0
-101 -136 0
-102 -137 0
-103 -138 0
-104 -139 0
-105 -140 0
-101 -181 0
-102 -182 0
-103 -183 0
-104 -184 0
-105 -185 0
-101 -191 0
-102 -192 0
-103 -193 0
-104 -194 0
-105 -195 0
-101 -211 0
-102 -212 0
-103 -213 0
-104 -214 0
-105 -215 0
-101 -276 0
-102 -277 0
-103 -278 0
-104 -279 0
-105 -280 0
-101 -351 0
-102 -352 0
-103 -353 0
-104 -354 0
-105 -355 0
-101 -446 0
-102 -447 0
-103 -448 0
-104 -449 0
-105 -450 0
-101 -486 0
-102 -487 0
-103 -488 0
-104 -489 0
-105 -490 0
-106 -131 0
-107 -132 0
-108 -133 0
-109 -134 0
-110 -135 0
-106 -226 0
-107 -227 0
-108 -228 0
-109 -229 0
-110 -230 0
-106 -326 0
-107 -327 0
-108 -328 0
-109 -329 0
-110 -330 0
-106 -451 0
-107 -452 0
-108 -453 0
-109 -454 0
-110 -455 0
-106 -486 0
-107 -487 0
-108 -488 0
-109 -489 0
-110 -490 0
-106 -496 0
-107 -497 0
-108 -498 0
-109 -499 0
-110 -500 0
-111 -166 0
-112 -167 0
-113 -168 0
-114 -169 0
-115 -170 0
-111 -301 0
-112 -302 0
-113 -303 0
-114 -304 0
-115 -305 0
-111 -431 0
-112 -432 0
-113 -433 0
-114 -434 0
-115 -435 0
-111 -441 0
-112 -442 0
-113 -443 0
-114 -444 0
-115 -445 0
-111 -456 0
-112 -457 0
-113 -458 0
-114 -459 0
-115 -460 0
-111 -496 0
-112 -497 0
-113 -498 0
-114 -499 0
-115 -500 0
-116 -166 0
-117 -167 0
-118 -168 0
-119 -169 0
-120 -170 0
-116 -226 0
-117 -227 0
-118 -228 0
-119 -229 0
-120 -230 0
-116 -251 0
-117 -252 0
-118 -253 0
-119 -254 0
-120 -255 0
-116 -261 0
-117 -262 0
-118 -263 0
-119 -264 0
-120 -265 0
-116 -286 0
-117 -287 0
-118 -288 0
-119 -289 0
-120 -290 0
-116 -311 0
-117 -312 0
-118 -313 0
-119 -314 0
-120 -315 0
-116 -351 0
-117 -352 0
-118 -353 0
-119 -354 0
-120 -355 0
-116 -396 0
-117 -397 0
-118 -398 0
-119 -399 0
-120 -400 0
-116 -436 0
-117 -437 0
-118 -438 0
-119 -439 0
-120 -440 0
-121 -176 0
-122 -177 0
-123 -178 0
-124 -179 0
-125 -180 0
-121 -271 0
-122 -272 0
-123 -273 0
-124 -274 0
-125 -275 0
-121 -336 0
-122 -337 0
-123 -338 0
-124 -339 0
-125 -340 0
-121 -341 0
-122 -342 0
-123 -343 0
-124 -344 0
-125 -345 0
-126 -171 0
-127 -172 0
-128 -173 0
-129 -174 0
-130 -175 0
-126 -211 0
-127 -212 0
-128 -213 0
-129 -214 0
-130 -215 0
-126 -281 0
-127 -282 0
-128 -283 0
-129 -284 0
-130 -285 0
-126 -306 0
-127 -307 0
-128 -308 0
-129 -309 0
-130 -310 0
-126 -361 0
-127 -362 0
-128 -363 0
-129 -364 0
-130 -365 0
-126 -381 0
-127 -382 0
-128 -383 0
-129 -384 0
-130 -385 0
-126 -411 0
-127 -412 0
-128 -413 0
-129 -414 0
-130 -415 0
-126 -436 0
-127 -437 0
-128 -438 0
-129 -439 0
-130 -440 0
-131 -311 0
-132 -312 0
-133 -313 0
-134 -314 0
-135 -315 0
-131 -396 0
-132 -397 0
-133 -398 0
-134 -399 0
-135 -400 0
-131 -426 0
-132 -427 0
-133 -428 0
-134 -429 0
-135 -430 0
-136 -191 0
-137 -192 0
-138 -193 0
-139 -194 0
-140 -195 0
-136 -421 0
-137 -422 0
-138 -423 0
-139 -424 0
-140 -425 0
-141 -166 0
-142 -167 0
-143 -168 0
-144 -169 0
-145 -170 0
-141 -241 0
-142 -242 0
-143 -243 0
-144 -244 0
-145 -245 0
-141 -256 0
-142 -257 0
-143 -258 0
-144 -259 0
-145 -260 0
-141 -281 0
-142 -282 0
-143 -283 0
-144 -284 0
-145 -285 0
-141 -366 0
-142 -367 0
-143 -368 0
-144 -369 0
-145 -370 0
-141 -376 0
-142 -377 0
-143 -378 0
-144 -379 0
-145 -380 0
-141 -441 0
-142 -442 0
-143 -443 0
-144 -444 0
-145 -445 0
-146 -186 0
-147 -187 0
-148 -188 0
-149 -189 0
-150 -190 0
-146 -351 0
-147 -352 0
-148 -353 0
-149 -354 0
-150 -355 0
-146 -366 0
-147 -367 0
-148 -368 0
-149 -369 0
-150 -370 0
-146 -411 0
-147 -412 0
-148 -413 0
-149 -414 0
-150 -415 0
-151 -181 0
-152 -182 0
-153 -183 0
-154 -184 0
-155 -185 0
-151 -186 0
-152 -187 0
-153 -188 0
-154 -189 0
-155 -190 0
-151 -211 0
-152 -212 0
-153 -213 0
-154 -214 0
-155 -215 0
-151 -311 0
-152 -312 0
-153 -313 0
-154 -314 0
-155 -315 0
-151 -356 0
-152 -357 0
-153 -358 0
-154 -359 0
-155 -360 0
-151 -376 0
-152 -377 0
-153 -378 0
-154 -379 0
-155 -380 0
-151 -406 0
-152 -407 0
-153 -408 0
-154 -409 0
-155 -410 0
-151 -411 0
-152 -412 0
-153 -413 0
-154 -414 0
-155 -415 0
-151 -441 0
-152 -442 0
-153 -443 0
-154 -444 0
-155 -445 0
-151 -456 0
-152 -457 0
-153 -458 0
-154 -459 0
-155 -460 0
-151 -471 0
-152 -472 0
-153 -473 0
-154 -474 0
-155 -475 0
-151 -476 0
-152 -477 0
-153 -478 0
-154 -479 0
-155 -480 0
-156 -191 0
-157 -192 0
-158 -193 0
-159 -194 0
-160 -195 0
-156 -291 0
-157 -292 0
-158 -293 0
-159 -294 0
-160 -295 0
-156 -396 0
-157 -397 0
-158 -398 0
-159 -399 0
-160 -400 0
-161 -311 0
-162 -312 0
-163 -313 0
-164 -314 0
-165 -315 0
-161 -366 0
-162 -367 0
-163 -368 0
-164 -369 0
-165 -370 0
-161 -411 0
-162 -412 0
-163 -413 0
-164 -414 0
-165 -415 0
-161 -456 0
-162 -457 0
-163 -458 0
-164 -459 0
-165 -460 0
-161 -481 0
-162 -482 0
-163 -483 0
-164 -484 0
-165 -485 0
-166 -231 0
-167 -232 0
-168 -233 0
-169 -234 0
-170 -235 0
-171 -261 0
-172 -262 0
-173 -263 0
-174 -264 0
-175 -265 0
-171 -386 0
-172 -387 0
-173 -388 0
-174 -389 0
-175 -390 0
-171 -486 0
-172 -487 0
-173 -488 0
-174 -489 0
-175 -490 0
-176 -306 0
-177 -307 0
-178 -308 0
-179 -309 0
-180 -310 0
-176 -386 0
-177 -387 0
-178 -388 0
-179 -389 0
-180 -390 0
-176 -391 0
-177 -392 0
-178 -393 0
-179 -394 0
-180 -395 0
-176 -446 0
-177 -447 0
-178 -448 0
-179 -449 0
-180 -450 0
-181 -271 0
-182 -272 0
-183 -273 0
-184 -274 0
-185 -275 0
-181 -311 0
-182 -312 0
-183 -313 0
-184 -314 0
-185 -315 0
-181 -331 0
-182 -332 0
-183 -333 0
-184 -334 0
-185 -335 0
-181 -346 0
-182 -347 0
-183 -348 0
-184 -349 0
-185 -350 0
-181 -366 0
-182 -367 0
-183 -368 0
-184 -369 0
-185 -370 0
-181 -426 0
-182 -427 0
-183 -428 0
-184 -429 0
-185 -430 0
-181 -461 0
-182 -462 0
-183 -463 0
-184 -464 0
-185 -465 0
-186 -291 0
-187 -292 0
-188 -293 0
-189 -294 0
-190 -295 0
-186 -351 0
-187 -352 0
-188 -353 0
-189 -354 0
-190 -355 0
-186 -361 0
-187 -362 0
-188 -363 0
-189 -364 0
-190 -365 0
-186 -386 0
-187 -387 0
-188 -388 0
-189 -389 0
-190 -390 0
-186 -431 0
-187 -432 0
-188 -433 0
-189 -434 0
-190 -435 0
-186 -466 0
-187 -467 0
-188 -468 0
-189 -469 0
-190 -470 0
-191 -271 0
-192 -272 0
-193 -273 0
-194 -274 0
-195 -275 0
-191 -356 0
-192 -357 0
-193 -358 0
-194 -359 0
-195 -360 0
-191 -416 0
-192 -417 0
-193 -418 0
-194 -419 0
-195 -420 0
-191 -421 0
-192 -422 0
-193 -423 0
-194 -424 0
-195 -425 0
-191 -446 0
-192 -447 0
-193 -448 0
-194 -449 0
-195 -450 0
-191 -481 0
-192 -482 0
-193 -483 0
-194 -484 0
-195 -485 0
-196 -231 0
-197 -232 0
-198 -233 0
-199 -234 0
-200 -235 0
-196 -246 0
-197 -247 0
-198 -248 0
-199 -249 0
-200 -250 0
-196 -416 0
-197 -417 0
-198 -418 0
-199 -419 0
-200 -420 0
-196 -441 0
-197 -442 0
-198 -443 0
-199 -444 0
-200 -445 0
-196 -456 0
-197 -457 0
-198 -458 0
-199 -459 0
-200 -460 0
-201 -236 0
-202 -237 0
-203 -238 0
-204 -239 0
-205 -240 0
-201 -296 0
-202 -297 0
-203 -298 0
-204 -299 0
-205 -300 0
-201 -306 0
-202 -307 0
-203 -308 0
-204 -309 0
-205 -310 0
-201 -411 0
-202 -412 0
-203 -413 0
-204 -414 0
-205 -415 0
-201 -416 0
-202 -417 0
-203 -418 0
-204 -419 0
-205 -420 0
-201 -426 0
-202 -427 0
-203 -428 0
-204 -429 0
-205 -430 0
-201 -486 0
-202 -487 0
-203 -488 0
-204 -489 0
-205 -490 0
-206 -366 0
-207 -367 0
-208 -368 0
-209 -369 0
-210 -370 0
-211 -236 0
-212 -237 0
-213 -238 0
-214 -239 0
-215 -240 0
-211 -271 0
-212 -272 0
-213 -273 0
-214 -274 0
-215 -275 0
-211 -276 0
-212 -277 0
-213 -278 0
-214 -279 0
-215 -280 0
-211 -411 0
-212 -412 0
-213 -413 0
-214 -414 0
-215 -415 0
-211 -426 0
-212 -427 0
-213 -428 0
-214 -429 0
-215 -430 0
-211 -431 0
-212 -432 0
-213 -433 0
-214 -434 0
-215 -435 0
-211 -456 0
-212 -457 0
-213 -458 0
-214 -459 0
-215 -460 0
-211 -476 0
-212 -477 0
-213 -478 0
-214 -479 0
-215 -480 0
-216 -331 0
-217 -332 0
-218 -333 0
-219 -334 0
-220 -335 0
-216 -406 0
-217 -407 0
-218 -408 0
-219 -409 0
-220 -410 0
-221 -261 0
-222 -262 0
-223 -263 0
-224 -264 0
-225 -265 0
-221 -286 0
-222 -287 0
-223 -288 0
-224 -289 0
-225 -290 0
-221 -296 0
-222 -297 0
-223 -298 0
-224 -299 0
-225 -300 0
-221 -301 0
-222 -302 0
-223 -303 0
-224 -304 0
-225 -305 0
-221 -346 0
-222 -347 0
-223 -348 0
-224 -349 0
-225 -350 0
-221 -366 0
-222 -367 0
-223 -368 0
-224 -369 0
-225 -370 0
-221 -471 0
-222 -472 0
-223 -473 0
-224 -474 0
-225 -475 0
-226 -316 0
-227 -317 0
-228 -318 0
-229 -319 0
-230 -320 0
-226 -356 0
-227 -357 0
-228 -358 0
-229 -359 0
-230 -360 0
-226 -376 0
-227 -377 0
-228 -378 0
-229 -379 0
-230 -380 0
-226 -466 0
-227 -467 0
-228 -468 0
-229 -469 0
-230 -470 0
-226 -486 0
-227 -487 0
-228 -488 0
-229 -489 0
-230 -490 0
-231 -316 0
-232 -317 0
-233 -318 0
-234 -319 0
-235 -320 0
-231 -326 0
-232 -327 0
-233 -328 0
-234 -329 0
-235 -330 0
-231 -386 0
-232 -387 0
-233 -388 0
-234 -389 0
-235 -390 0
-231 -496 0
-232 -497 0
-233 -498 0
-234 -499 0
-235 -500 0
-236 -301 0
-237 -302 0
-238 -303 0
-239 -304 0
-240 -305 0
-236 -371 0
-237 -372 0
-238 -373 0
-239 -374 0
-240 -375 0
-236 -431 0
-237 -432 0
-238 -433 0
-239 -434 0
-240 -435 0
-241 -321 0
-242 -322 0
-243 -323 0
-244 -324 0
-245 -325 0
-241 -421 0
-242 -422 0
-243 -423 0
-244 -424 0
-245 -425 0
-241 -436 0
-242 -437 0
-243 -438 0
-244 -439 0
-245 -440 0
-246 -281 0
-247 -282 0
-248 -283 0
-249 -284 0
-250 -285 0
-246 -326 0
-247 -327 0
-248 -328 0
-249 -329 0
-250 -330 0
-246 -366 0
-247 -367 0
-248 -368 0
-249 -369 0
-250 -370 0
-246 -401 0
-247 -402 0
-248 -403 0
-249 -404 0
-250 -405 0
-246 -411 0
-247 -412 0
-248 -413 0
-249 -414 0
-250 -415 0
-246 -431 0
-247 -432 0
-248 -433 0
-249 -434 0
-250 -435 0
-251 -296 0
-252 -297 0
-253 -298 0
-254 -299 0
-255 -300 0
-251 -306 0
-252 -307 0
-253 -308 0
-254 -309 0
-255 -310 0
-256 -336 0
-257 -337 0
-258 -338 0
-259 -339 0
-260 -340 0
-256 -461 0
-257 -462 0
-258 -463 0
-259 -464 0
-260 -465 0
-261 -351 0
-262 -352 0
-263 -353 0
-264 -354 0
-265 -355 0
-261 -381 0
-262 -382 0
-263 -383 0
-264 -384 0
-265 -385 0
-261 -416 0
-262 -417 0
-263 -418 0
-264 -419 0
-265 -420 0
-261 -471 0
-262 -472 0
-263 -473 0
-264 -474 0
-265 -475 0
-261 -476 0
-262 -477 0
-263 -478 0
-264 -479 0
-265 -480 0
-266 -306 0
-267 -307 0
-268 -308 0
-269 -309 0
-270 -310 0
-266 -381 0
-267 -382 0
-268 -383 0
-269 -384 0
-270 -385 0
-266 -386 0
-267 -387 0
-268 -388 0
-269 -389 0
-270 -390 0
-266 -491 0
-267 -492 0
-268 -493 0
-269 -494 0
-270 -495 0
-271 -366 0
-272 -367 0
-273 -368 0
-274 -369 0
-275 -370 0
-271 -376 0
-272 -377 0
-273 -378 0
-274 -379 0
-275 -380 0
-271 -391 0
-272 -392 0
-273 -393 0
-274 -394 0
-275 -395 0
-271 -496 0
-272 -497 0
-273 -498 0
-274 -499 0
-275 -500 0
-281 -356 0
-282 -357 0
-283 -358 0
-284 -359 0
-285 -360 0
-281 -431 0
-282 -432 0
-283 -433 0
-284 -434 0
-285 -435 0
-286 -321 0
-287 -322 0
-288 -323 0
-289 -324 0
-290 -325 0
-286 -496 0
-287 -497 0
-288 -498 0
-289 -499 0
-290 -500 0
-291 -326 0
-292 -327 0
-293 -328 0
-294 -329 0
-295 -330 0
-291 -356 0
-292 -357 0
-293 -358 0
-294 -359 0
-295 -360 0
-296 -376 0
-297 -377 0
-298 -378 0
-299 -379 0
-300 -380 0
-296 -381 0
-297 -382 0
-298 -383 0
-299 -384 0
-300 -385 0
-296 -406 0
-297 -407 0
-298 -408 0
-299 -409 0
-300 -410 0
-296 -481 0
-297 -482 0
-298 -483 0
-299 -484 0
-300 -485 0
-301 -351 0
-302 -352 0
-303 -353 0
-304 -354 0
-305 -355 0
-301 -391 0
-302 -392 0
-303 -393 0
-304 -394 0
-305 -395 0
-301 -421 0
-302 -422 0
-303 -423 0
-304 -424 0
-305 -425 0
-301 -456 0
-302 -457 0
-303 -458 0
-304 -459 0
-305 -460 0
-301 -471 0
-302 -472 0
-303 -473 0
-304 -474 0
-305 -475 0
-306 -341 0
-307 -342 0
-308 -343 0
-309 -344 0
-310 -345 0
-306 -441 0
-307 -442 0
-308 -443 0
-309 -444 0
-310 -445 0
-311 -446 0
-312 -447 0
-313 -448 0
-314 -449 0
-315 -450 0
-316 -341 0
-317 -342 0
-318 -343 0
-319 -344 0
-320 -345 0
-316 -376 0
-317 -377 0
-318 -378 0
-319 -379 0
-320 -380 0
-316 -446 0
-317 -447 0
-318 -448 0
-319 -449 0
-320 -450 0
-316 -456 0
-317 -457 0
-318 -458 0
-319 -459 0
-320 -460 0
-316 -486 0
-317 -487 0
-318 -488 0
-319 -489 0
-320 -490 0
-321 -391 0
-322 -392 0
-323 -393 0
-324 -394 0
-325 -395 0
-326 -361 0
-327 -362 0
-328 -363 0
-329 -364 0
-330 -365 0
-326 -366 0
-327 -367 0
-328 -368 0
-329 -369 0
-330 -370 0
-326 -446 0
-327 -447 0
-328 -448 0
-329 -449 0
-330 -450 0
-326 -451 0
-327 -452 0
-328 -453 0
-329 -454 0
-330 -455 0
-326 -481 0
-327 -482 0
-328 -483 0
-329 -484 0
-330 -485 0
-331 -376 0
-332 -377 0
-333 -378 0
-334 -379 0
-335 -380 0
-331 -386 0
-332 -387 0
-333 -388 0
-334 -389 0
-335 -390 0
-336 -496 0
-337 -497 0
-338 -498 0
-339 -499 0
-340 -500 0
-341 -456 0
-342 -457 0
-343 -458 0
-344 -459 0
-345 -460 0
-346 -416 0
-347 -417 0
-348 -418 0
-349 -419 0
-350 -420 0
-346 -436 0
-347 -437 0
-348 -438 0
-349 -439 0
-350 -440 0
-346 -446 0
-347 -447 0
-348 -448 0
-349 -449 0
-350 -450 0
-346 -476 0
-347 -477 0
-348 -478 0
-349 -479 0
-350 -480 0
-351 -416 0
-352 -417 0
-353 -418 0
-354 -419 0
-355 -420 0
-356 -441 0
-357 -442 0
-358 -443 0
-359 -444 0
-360 -445 0
-366 -411 0
-367 -412 0
-368 -413 0
-369 -414 0
-370 -415 0
-366 -421 0
-367 -422 0
-368 -423 0
-369 -424 0
-370 -425 0
-371 -396 0
-372 -397 0
-373 -398 0
-374 -399 0
-375 -400 0
-376 -446 0
-377 -447 0
-378 -448 0
-379 -449 0
-380 -450 0
-381 -441 0
-382 -442 0
-383 -443 0
-384 -444 0
-385 -445 0
-386 -426 0
-387 -427 0
-388 -428 0
-389 -429 0
-390 -430 0
-386 -441 0
-387 -442 0
-388 -443 0
-389 -444 0
-390 -445 0
-391 -451 0
-392 -452 0
-393 -453 0
-394 -454 0
-395 -455 0
-391 -456 0
-392 -457 0
-393 -458 0
-394 -459 0
-395 -460 0
-401 -471 0
-402 -472 0
-403 -473 0
-404 -474 0
-405 -475 0
-401 -481 0
-402 -482 0
-403 -483 0
-404 -484 0
-405 -485 0
-401 -496 0
-402 -497 0
-403 -498 0
-404 -499 0
-405 -500 0
-406 -466 0
-407 -467 0
-408 -468 0
-409 -469 0
-410 -470 0
-416 -476 0
-417 -477 0
-418 -478 0
-419 -479 0
-420 -480 0
-416 -481 0
-417 -482 0
-418 -483 0
-419 -484 0
-420 -485 0
-421 -451 0
-422 -452 0
-423 -453 0
-424 -454 0
-425 -455 0
-421 -456 0
-422 -457 0
-423 -458 0
-424 -459 0
-425 -460 0
-441 -496 0
-442 -497 0
-443 -498 0
-444 -499 0
-445 -500 0
-456 -486 0
-457 -487 0
-458 -488 0
-459 -489 0
-460 -490 0
